objective value:                 0.000732531869999956
x_1_1                                               1 	(obj:0)
x_2_2                                               1 	(obj:0)
x_3_4                                               1 	(obj:0)
x_4_1                                               1 	(obj:0)
x_5_1                                               1 	(obj:0)
x_6_2                                               1 	(obj:0)
x_7_2                                               1 	(obj:0)
x_8_1                                               1 	(obj:0)
x_9_1                                               1 	(obj:0)
x_10_2                                              1 	(obj:0)
x_11_4                                              1 	(obj:0)
x_12_1                                              1 	(obj:0)
x_13_2                                              1 	(obj:0)
x_14_4                                              1 	(obj:0)
x_15_1                                              1 	(obj:0)
x_16_4                                              1 	(obj:0)
x_17_2                                              1 	(obj:0)
x_18_2                                              1 	(obj:0)
x_19_4                                              1 	(obj:0)
x_20_4                                              1 	(obj:0)
ind_1                                               1 	(obj:0)
abs_1_2                                             1 	(obj:0)
ind_2                                               1 	(obj:0)
abs_2_4                                             1 	(obj:0)
ind_4                                               1 	(obj:0)
abs_4_1                                             1 	(obj:0)
epsI                             0.000732531869999956 	(obj:1)
SCIP Status        : solving was interrupted [node limit reached]
Total Time         :       2.15
  solving          :       2.15
  presolving       :       0.05 (included in solving)
  reading          :       0.00
  copying          :       0.01 (1 #copies) (minimal 0.01, maximal 0.01, average 0.01)
Original Problem   :
  Problem name     : ../instances/Pot4/Pot4_T_20B_alpha=8.txt.spa
  Variables        : 101 (100 binary, 0 integer, 0 implicit integer, 1 continuous)
  Constraints      : 193 initial, 193 maximal
  Objective sense  : maximize
Presolved Problem  :
  Problem name     : t_../instances/Pot4/Pot4_T_20B_alpha=8.txt.spa
  Variables        : 590 (92 binary, 0 integer, 16 implicit integer, 482 continuous)
  Constraints      : 2015 initial, 2024 maximal
Presolvers         :   ExecTime  SetupTime  Calls  FixedVars   AggrVars   ChgTypes  ChgBounds   AddHoles    DelCons    AddCons   ChgSides   ChgCoefs
  boundshift       :       0.00       0.00      0          0          0          0          0          0          0          0          0          0
  components       :       0.00       0.00      1          0          0          0          0          0          0          0          0          0
  convertinttobin  :       0.00       0.00      0          0          0          0          0          0          0          0          0          0
  domcol           :       0.00       0.00      1          0          0          0          0          0          0          0          0          0
  dualagg          :       0.00       0.00      0          0          0          0          0          0          0          0          0          0
  dualinfer        :       0.00       0.00      0          0          0          0          0          0          0          0          0          0
  gateextraction   :       0.00       0.00      3          0          0          0          0          0        108         34          0          0
  implfree         :       0.00       0.00      0          0          0          0          0          0          0          0          0          0
  implics          :       0.00       0.00      4          0          0          0          0          0          0          0          0          0
  inttobinary      :       0.00       0.00      0          0          0          0          0          0          0          0          0          0
  redvub           :       0.00       0.00      0          0          0          0          0          0          0          0          0          0
  stuffing         :       0.00       0.00      1          0          0          0          0          0          0          0          0          0
  trivial          :       0.00       0.00      7          0          0          0          0          0          0          0          0          0
  tworowbnd        :       0.00       0.00      0          0          0          0          0          0          0          0          0          0
  dualfix          :       0.00       0.00      7          4          0          0          0          0          0          0          0          0
  genvbounds       :       0.00       0.00      0          0          0          0          0          0          0          0          0          0
  probing          :       0.03       0.00      1          0          0          0          4          0          0          0          0          0
  pseudoobj        :       0.00       0.00      0          0          0          0          0          0          0          0          0          0
  varbound         :       0.00       0.00      9          0          0          0          0          0         28         28          0          0
  setppc           :       0.00       0.00     12          0          0          0          0          0          0          0          0          0
  and              :       0.00       0.00      4          0         12          0          0          0         12          0          0          0
  linear           :       0.01       0.00      9          3          1          0          4          0          7          0         12         12
  logicor          :       0.00       0.00      7          0          0          0          0          0          0          0          0          0
  bounddisjunction :       0.00       0.00      0          0          0          0          0          0          0          0          0          0
  quadratic        :       0.01       0.00      2          0          0          0          0          0          0       1915          0          0
  root node        :          -          -      -          1          -          -         56          -          -          -          -          -
Constraints        :     Number  MaxNumber  #Separate #Propagate    #EnfoLP    #EnfoPS     #Check   #ResProp    Cutoffs    DomReds       Cuts    Applied      Conss   Children
  integral         :          0          0          0          0        201          0         39          0          0       1103          0          0          2        166
  varbound         :        869        869         77       4676          0          0         11        383         11       1660          0          0          0          0
  setppc           :        110        110         77       4664          0          0          7        340         13        155          7          0          0          0
  and              :         22         22        148       3927          0          0          4         27          1         71         27         11          0          0
  linear           :        979        979         77       4651          0          0          1        243         38       1992        427        202          0          0
  logicor          :         35+        44         73       1089          0          0          0         38          3         25          3          3          0          0
  bounddisjunction :          0+        20          0       1201          0          0          0          0          0          3          0          0          0          0
  countsols        :          0          0          0          0          0          0          7          0          0          0          0          0          0          0
Constraint Timings :  TotalTime  SetupTime   Separate  Propagate     EnfoLP     EnfoPS      Check    ResProp    SB-Prop
  integral         :       0.95       0.00       0.00       0.00       0.95       0.00       0.00       0.00       0.00
  varbound         :       0.05       0.00       0.00       0.03       0.00       0.00       0.00       0.00       0.02
  setppc           :       0.05       0.00       0.00       0.05       0.00       0.00       0.00       0.00       0.00
  and              :       0.01       0.00       0.00       0.01       0.00       0.00       0.00       0.00       0.00
  linear           :       0.12       0.00       0.01       0.11       0.00       0.00       0.00       0.00       0.00
  logicor          :       0.00       0.00       0.00       0.00       0.00       0.00       0.00       0.00       0.00
  bounddisjunction :       0.00       0.00       0.00       0.00       0.00       0.00       0.00       0.00       0.00
  countsols        :       0.00       0.00       0.00       0.00       0.00       0.00       0.00       0.00       0.00
Propagators        : #Propagate   #ResProp    Cutoffs    DomReds
  dualfix          :          2          0          0          0
  genvbounds       :          0          0          0          0
  obbt             :          0          0          0          0
  probing          :          0          0          0          0
  pseudoobj        :        761          0          0         55
  redcost          :        481          0          0          1
  rootredcost      :          1          0          0          0
  vbounds          :       4481          0          0          0
Propagator Timings :  TotalTime  SetupTime   Presolve  Propagate    ResProp    SB-Prop
  dualfix          :       0.00       0.00       0.00       0.00       0.00       0.00
  genvbounds       :       0.00       0.00       0.00       0.00       0.00       0.00
  obbt             :       0.00       0.00       0.00       0.00       0.00       0.00
  probing          :       0.03       0.00       0.03       0.00       0.00       0.00
  pseudoobj        :       0.00       0.00       0.00       0.00       0.00       0.00
  redcost          :       0.00       0.00       0.00       0.00       0.00       0.00
  rootredcost      :       0.00       0.00       0.00       0.00       0.00       0.00
  vbounds          :       0.01       0.00       0.00       0.01       0.00       0.00
Conflict Analysis  :       Time      Calls    Success    DomReds  Conflicts   Literals    Reconvs ReconvLits   LP Iters
  propagation      :       0.00         28         28          -        211       42.5          5       31.4          -
  infeasible LP    :       0.00          3          0          -          0        0.0          0        0.0          0
  bound exceed. LP :       0.00          0          0          -          0        0.0          0        0.0          0
  strong branching :       0.00          0          0          -          0        0.0          0        0.0          0
  pseudo solution  :       0.00          0          0          -          0        0.0          0        0.0          -
  applied globally :       0.00          -          -          0         32       11.7          -          -          -
  applied locally  :          -          -          -          0          2       32.5          -          -          -
Separators         :   ExecTime  SetupTime      Calls    Cutoffs    DomReds       Cuts    Applied      Conss
  cut pool         :       0.00                    75          -          -        959          -          -    (maximal pool size: 693)
  cgmip            :       0.00       0.00          0          0          0          0          0          0
  clique           :       0.00       0.00         76          0          0         29         26          0
  closecuts        :       0.00       0.00          0          0          0          0          0          0
  cmir             :       0.02       0.00         10          0          0        169        128          0
  disjunctive      :       0.00       0.00          0          0          0          0          0          0
  eccuts           :       0.00       0.00          0          0          0          0          0          0
  flowcover        :       0.18       0.00         15          0          0        307         17          0
  gomory           :       0.02       0.00         10          0          0          8          8          0
  impliedbounds    :       0.00       0.00         76          0          0        582        134          0
  intobj           :       0.00       0.00          0          0          0          0          0          0
  mcf              :       0.00       0.00          1          0          0          0          0          0
  oddcycle         :       0.00       0.00          0          0          0          0          0          0
  rapidlearning    :       0.00       0.00          0          0          0          0          0          0
  strongcg         :       0.08       0.00         20          0          0         27          4          0
  zerohalf         :       0.00       0.00          0          0          0          0          0          0
Pricers            :   ExecTime  SetupTime      Calls       Vars
  problem variables:       0.00          -          0          0
Branching Rules    :   ExecTime  SetupTime   BranchLP  BranchExt   BranchPS    Cutoffs    DomReds       Cuts      Conss   Children
  allfullstrong    :       0.00       0.00          0          0          0          0          0          0          0          0
  cloud            :       0.00       0.00          0          0          0          0          0          0          0          0
  distribution     :       0.00       0.00          0          0          0          0          0          0          0          0
  fullstrong       :       0.00       0.00          0          0          0          0          0          0          0          0
  inference        :       0.00       0.00          0          0          0          0          0          0          0          0
  leastinf         :       0.00       0.00          0          0          0          0          0          0          0          0
  mostinf          :       0.00       0.00          0          0          0          0          0          0          0          0
  multaggr         :       0.00       0.00          0          0          0          0          0          0          0          0
  nodereopt        :       0.00       0.00          0          0          0          0          0          0          0          0
  pscost           :       0.00       0.00          0          0          0          0          0          0          0          0
  random           :       0.00       0.00          0          0          0          0          0          0          0          0
  relpscost        :       0.95       0.00        201          0          0          0       1103          0          2        166
Primal Heuristics  :   ExecTime  SetupTime      Calls      Found       Best
  LP solutions     :       0.00          -          -          0          -
  pseudo solutions :       0.00          -          -          0          -
  strong branching :       0.00          -          -          0          -
  SpaGreedy        :       0.00       0.00          6          2          1
  actconsdiving    :       0.00       0.00          0          0          0
  bound            :       0.00       0.00          0          0          0
  clique           :       0.00       0.00          0          0          0
  coefdiving       :       0.00       0.00          1          0          0
  crossover        :       0.00       0.00          0          0          0
  dins             :       0.00       0.00          0          0          0
  distributiondivin:       0.00       0.00          0          0          0
  dualval          :       0.00       0.00          0          0          0
  feaspump         :       0.02       0.00          1          0          0
  fixandinfer      :       0.00       0.00          0          0          0
  fracdiving       :       0.00       0.00          1          0          0
  guideddiving     :       0.00       0.00          0          0          0
  indicator        :       0.00       0.00          0          0          0
  intdiving        :       0.00       0.00          0          0          0
  intshifting      :       0.00       0.00          2          0          0
  linesearchdiving :       0.00       0.00          0          0          0
  localbranching   :       0.00       0.00          0          0          0
  mutation         :       0.00       0.00          0          0          0
  nlpdiving        :       0.00       0.00          0          0          0
  objpscostdiving  :       0.04       0.00          1          0          0
  octane           :       0.00       0.00          0          0          0
  ofins            :       0.00       0.00          0          0          0
  oneopt           :       0.00       0.00          0          0          0
  proximity        :       0.00       0.00          0          0          0
  pscostdiving     :       0.00       0.00          1          0          0
  randrounding     :       0.25       0.00         76          0          0
  rens             :       0.27       0.00          1          0          0
  reoptsols        :       0.00       0.00          0          0          0
  rins             :       0.00       0.00          0          0          0
  rootsoldiving    :       0.00       0.00          0          0          0
  rounding         :       0.00       0.00        165          0          0
  shiftandpropagate:       0.00       0.00          0          0          0
  shifting         :       0.02       0.00         83          0          0
  simplerounding   :       0.00       0.00          0          0          0
  subnlp           :       0.00       0.00          0          0          0
  trivial          :       0.00       0.00          2          0          0
  trivialnegation  :       0.00       0.00          0          0          0
  trysol           :       0.00       0.00          0          0          0
  twoopt           :       0.00       0.00          0          0          0
  undercover       :       0.00       0.00          1          0          0
  vbounds          :       0.00       0.00          0          0          0
  veclendiving     :       0.01       0.00          1          0          0
  zeroobj          :       0.00       0.00          0          0          0
  zirounding       :       0.00       0.00         83          0          0
  other solutions  :          -          -          -          0          -
Diving Statistics  :      Calls      Nodes   LP Iters Backtracks   MinDepth   MaxDepth   AvgDepth  NLeafSols  MinSolDpt  MaxSolDpt  AvgSolDpt
  actconsdiving    :          0          -          -          -          -          -          -          -          -          -          -
  coefdiving       :          1          6          0          3         20         20       20.0          -          -          -          -
  distributiondivin:          0          -          -          -          -          -          -          -          -          -          -
  fracdiving       :          1          6         25          0         19         19       19.0          -          -          -          -
  guideddiving     :          0          -          -          -          -          -          -          -          -          -          -
  linesearchdiving :          0          -          -          -          -          -          -          -          -          -          -
  pscostdiving     :          1          6          6          3         20         20       20.0          -          -          -          -
  veclendiving     :          1          9        109          2         24         24       24.0          -          -          -          -
LP                 :       Time      Calls Iterations  Iter/call   Iter/sec  Time-0-It Calls-0-It
  primal LP        :       0.00         11          0       0.00          -       0.00         11
  dual LP          :       0.17        361       6769      26.75   39817.65       0.00        108
  lex dual LP      :       0.00          0          0       0.00          -
  barrier LP       :       0.00          0          0       0.00          -       0.00          0
  diving/probing LP:       0.08         74       2144      28.97   26800.00
  strong branching :       0.81        314      22919      72.99   28295.06
    (at root node) :          -         21       1750      83.33          -
  conflict analysis:       0.00          0          0       0.00          -
B&B Tree           :
  number of runs   :          1
  nodes            :        100 (83 internal, 17 leaves)
  nodes (total)    :        100 (83 internal, 17 leaves)
  nodes left       :         67
  max depth        :         19
  max depth (total):         19
  backtracks       :         12 (12.0%)
  delayed cutoffs  :          0
  repropagations   :          1 (0 domain reductions, 0 cutoffs)
  avg switch length:       2.88
  switching time   :       0.00
Root Node          :
  First LP value   : +3.00000000000000e+00
  First LP Iters   :        371
  First LP Time    :       0.00
  Final Dual Bound : +7.34974938115466e-03
  Final Root Iters :       3041
Solution           :
  Solutions found  :          2 (1 improvements)
  First Solution   : +7.32531869999956e-04   (in run 1, after 1 nodes, 0.05 seconds, depth 0, found by <SpaGreedy>)
  Gap First Sol.   :   infinite
  Gap Last Sol.    :   infinite
  Primal Bound     : +7.32531869999956e-04   (in run 1, after 1 nodes, 0.05 seconds, depth 0, found by <SpaGreedy>)
  Dual Bound       : +6.50309555846090e-03
  Gap              :     787.76 %
  Avg. Gap         :      93.00 % (199.94 primal-dual integral)
